17	4	3
23	27	25	32	17	25	47	
0	0	0	0	0	3	8	9	2	4	5	3	2	3	4
8	1	3	1	10	1	3	7	6	5	2	2	14	17
6	6	9	2	1	9	3	9	4	9	1	1	16
6	4	7	9	7	1	7	10	7	3	2	3	5	6	8
5	4	1	1	10	8	4	6	7	5	1	3	7	11	13
225	7	10	9	3	7	8	8	6	9	1	1	17
125	4	8	2	9	1	10	4	8	6	9	2	10	12
175	8	4	9	5	9	4	1	7	7	10	2	9	17
75	3	2	4	4	8	8	6	7	5	8	1	17
25	7	6	1	7	8	3	1	4	9	6	1	15
150	5	5	5	8	4	6	4	2	1	2	1	17
150	5	6	8	9	3	2	2	6	9	7	2	14	17
8	1	5	2	7	4	8	10	5	5	7	1	17
2	4	4	6	1	4	2	4	10	8	8	1	17
2	7	10	9	4	8	6	10	9	9	8	1	17
2	7	8	10	9	5	3	3	8	5	4	2	17	17
0	0	0	0	0	9	7	6	10	3	4	0
